Version identifier: 20.1.0.0 | 2020-11-10 | 9bedb6d68
Tried aggregator 2 times.
MIP Presolve eliminated 1370 rows and 827 columns.
MIP Presolve modified 2558 coefficients.
Aggregator did 141 substitutions.
Reduced MIP has 1045 rows, 839 columns, and 3315 nonzeros.
Reduced MIP has 183 binaries, 656 generals, 0 SOSs, and 0 indicators.
Presolve time = 0.01 sec. (5.52 ticks)
Found incumbent of value 56.000000 after 0.02 sec. (9.49 ticks)
Probing fixed 30 vars, tightened 256 bounds.
Probing time = 0.00 sec. (0.96 ticks)
Tried aggregator 1 time.
Detecting symmetries...
MIP Presolve eliminated 450 rows and 30 columns.
MIP Presolve modified 41 coefficients.
Reduced MIP has 595 rows, 809 columns, and 1935 nonzeros.
Reduced MIP has 224 binaries, 585 generals, 0 SOSs, and 0 indicators.
Presolve time = 0.00 sec. (2.21 ticks)
Probing time = 0.00 sec. (0.14 ticks)
Clique table members: 1.
MIP emphasis: balance optimality and feasibility.
MIP search method: dynamic search.
Parallel mode: deterministic, using up to 24 threads.
Root relaxation solution time = 0.00 sec. (1.65 ticks)

        Nodes                                         Cuts/
   Node  Left     Objective  IInf  Best Integer    Best Bound    ItCnt     Gap

*     0+    0                           56.0000        0.0000           100.00%
      0     0        0.0000    36       56.0000        0.0000      183  100.00%
      0     0        3.6706   243       56.0000     Cuts: 116      547   93.45%
*     0+    0                            8.0000        3.6706            54.12%
      0     0        3.7619   111        8.0000      Cuts: 98      630   52.98%
      0     0        3.7619   175        8.0000      Cuts: 45      702   52.98%
      0     0        4.0000   135        8.0000      Cuts: 13      743   50.00%
      0     0        4.0000    49        8.0000      Cuts: 45      786   50.00%
      0     0        4.0000   129        8.0000      Cuts: 26      818   50.00%
      0     0        cutoff              8.0000        8.0000      818    0.00%
Elapsed time = 0.17 sec. (86.39 ticks, tree = 0.01 MB, solutions = 2)

Implied bound cuts applied:  24
Flow cuts applied:  3
Mixed integer rounding cuts applied:  2
Zero-half cuts applied:  37
Gomory fractional cuts applied:  5

Root node processing (before b&c):
  Real time             =    0.17 sec. (86.47 ticks)
Parallel b&c, 24 threads:
  Real time             =    0.00 sec. (0.00 ticks)
  Sync time (average)   =    0.00 sec.
  Wait time (average)   =    0.00 sec.
                          ------------
Total (root+branch&cut) =    0.17 sec. (86.47 ticks)

Solution status = Optimal
Solution LB = 8
Solution UB = 8
Runtime = 0.176183 seconds
	Command being timed: "/home/min/git_repos/CS598MEBProject/CNT-ILP/build/cnt -s 2 ./output/k6_n30/simC_c1_k6_n30_u2_s1_del02.input-right.cnp"
	User time (seconds): 0.79
	System time (seconds): 0.06
	Percent of CPU this job got: 443%
	Elapsed (wall clock) time (h:mm:ss or m:ss): 0:00.19
	Average shared text size (kbytes): 0
	Average unshared data size (kbytes): 0
	Average stack size (kbytes): 0
	Average total size (kbytes): 0
	Maximum resident set size (kbytes): 64268
	Average resident set size (kbytes): 0
	Major (requiring I/O) page faults: 0
	Minor (reclaiming a frame) page faults: 13476
	Voluntary context switches: 2183
	Involuntary context switches: 64
	Swaps: 0
	File system inputs: 0
	File system outputs: 16
	Socket messages sent: 0
	Socket messages received: 0
	Signals delivered: 0
	Page size (bytes): 4096
	Exit status: 0
